NAME : 60_5_03.68136.tour
COMMENT : Cost = 0_68136
COMMENT : Found by LKH [Keld Helsgaun] Thu Sep 14 11:13:09 2017
TYPE : TOUR
DIMENSION : 65
TOUR_SECTION
1
8
52
45
43
35
36
33
44
55
56
20
18
22
21
16
54
17
19
34
27
25
26
53
65
5
29
7
41
47
13
3
12
10
62
49
61
51
50
59
46
60
40
42
38
58
48
37
39
24
23
32
57
31
28
30
6
4
64
15
2
63
11
9
14
-1
EOF
